* ENCODING=ISO-8859-1
NAME          CPLEX
ROWS
 N  obj1    
 G  c1      
 G  c2      
 G  c3      
 G  c4      
 G  c5      
 G  c6      
 G  c7      
 G  c8      
 G  c9      
 G  c10     
 G  c11     
 G  c12     
 G  c13     
 G  c14     
 G  c15     
 G  c16     
 G  c17     
 G  c18     
 G  c19     
 G  c20     
 G  c21     
 G  c22     
 G  c23     
 G  c24     
 G  c25     
 G  c26     
 G  c27     
 G  c28     
 G  c29     
 G  c30     
 G  c31     
 G  c32     
 G  c33     
 G  c34     
 G  c35     
 G  c36     
 G  c37     
 G  c38     
 G  c39     
 G  c40     
 G  c41     
 G  c42     
 G  c43     
 G  c44     
 G  c45     
 G  c46     
 G  c47     
 G  c48     
 G  c49     
 G  c50     
 G  c51     
 G  c52     
 G  c53     
 G  c54     
 G  c55     
 G  c56     
 G  c57     
 G  c58     
 G  c59     
 G  c60     
COLUMNS
    MARK0000  'MARKER'                 'INTORG'
    x1        obj1                            1
    x1        c9                            475
    x1        c14                           112
    x1        c27                           605
    x1        c37                           953
    x1        c38                           146
    x1        c40                           932
    x1        c43                           744
    x1        c54                           326
    x2        obj1                            1
    x2        c1                            191
    x2        c12                           529
    x2        c13                           929
    x2        c36                           771
    x2        c51                           249
    x2        c52                           207
    x2        c54                           956
    x3        obj1                            1
    x3        c8                            543
    x3        c20                           278
    x3        c40                           914
    x3        c49                           298
    x3        c56                           364
    x3        c60                           258
    x4        obj1                            1
    x4        c5                            336
    x4        c8                            110
    x4        c23                           751
    x4        c27                           441
    x5        obj1                            1
    x5        c32                           696
    x5        c34                           496
    x5        c37                           736
    x5        c40                           211
    x5        c47                           990
    x5        c54                           179
    x6        obj1                            1
    x6        c43                           656
    x7        obj1                            1
    x7        c1                            541
    x7        c10                           196
    x7        c17                           412
    x7        c25                           821
    x7        c46                           590
    x7        c56                           205
    x8        obj1                            1
    x8        c2                            806
    x8        c11                           913
    x8        c40                           275
    x8        c41                           604
    x8        c44                           674
    x8        c47                           677
    x9        obj1                            1
    x9        c6                            846
    x9        c7                            832
    x9        c21                           670
    x9        c34                           991
    x9        c40                           745
    x9        c45                           998
    x9        c56                           209
    x9        c60                           276
    x10       obj1                            1
    x10       c14                           120
    x10       c15                           166
    x10       c29                           273
    x10       c31                           526
    x10       c40                           443
    x10       c49                           264
    x10       c50                           235
    x11       obj1                            1
    x11       c10                           941
    x11       c19                           715
    x11       c40                           589
    x12       obj1                            1
    x12       c23                           470
    x12       c27                           224
    x12       c60                           324
    x13       obj1                            1
    x13       c8                            815
    x13       c20                           644
    x13       c22                           968
    x13       c30                           853
    x13       c34                           686
    x13       c36                           790
    x13       c53                           799
    x13       c59                           856
    x14       obj1                            1
    x14       c7                            361
    x14       c8                            549
    x14       c18                           538
    x14       c30                           445
    x15       obj1                            1
    x15       c1                            704
    x15       c6                            118
    x15       c22                           693
    x15       c23                           703
    x15       c24                           200
    x15       c32                           843
    x15       c41                           848
    x15       c50                           348
    x15       c54                           175
    x15       c59                           525
    x16       obj1                            1
    x16       c21                           565
    x16       c49                           281
    x16       c57                           809
    x17       obj1                            1
    x17       c38                           441
    x17       c49                           405
    x17       c59                           368
    x18       obj1                            1
    x18       c9                            658
    x18       c23                           517
    x18       c54                           816
    x18       c60                           789
    x19       obj1                            1
    x19       c19                           186
    x19       c28                           913
    x19       c43                           459
    x19       c51                           408
    x19       c53                           761
    x20       obj1                            1
    x20       c4                            822
    x20       c14                           430
    x20       c26                           681
    x20       c48                           142
    x21       obj1                            1
    x21       c22                           304
    x21       c28                           739
    x21       c45                           169
    x21       c48                           307
    x21       c56                           219
    x21       c59                           413
    x21       c60                           307
    x22       obj1                            1
    x22       c3                            886
    x22       c12                           333
    x22       c30                           301
    x22       c31                           535
    x22       c50                           841
    x22       c58                           150
    x22       c59                           753
    x23       obj1                            1
    x23       c5                            507
    x23       c7                            429
    x23       c11                           758
    x23       c14                           274
    x23       c27                           969
    x23       c37                           215
    x23       c40                           289
    x23       c45                           349
    x23       c48                           467
    x24       obj1                            1
    x24       c17                           614
    x24       c25                           560
    x24       c40                           375
    x24       c42                           278
    x25       obj1                            1
    x25       c13                           519
    x25       c25                           433
    x25       c28                           446
    x25       c29                           860
    x25       c34                           772
    x25       c39                           605
    x25       c42                           364
    x25       c49                           756
    x26       obj1                            1
    x26       c18                           161
    x26       c35                           835
    x26       c53                           555
    x26       c54                           797
    x26       c55                           950
    x26       c58                           126
    x27       obj1                            1
    x27       c12                           468
    x27       c18                           514
    x27       c43                           734
    x27       c57                           568
    x27       c59                           242
    x28       obj1                            1
    x28       c2                            423
    x28       c12                           285
    x28       c43                           207
    x28       c50                           513
    x28       c58                           212
    x29       obj1                            1
    x29       c4                            304
    x29       c10                           218
    x29       c30                           866
    x29       c36                           613
    x29       c54                           245
    x30       obj1                            1
    x30       c6                            202
    x30       c15                           920
    x30       c25                           272
    x30       c28                           246
    x30       c37                           136
    x30       c41                           786
    x30       c46                           488
    x31       obj1                            1
    x31       c3                            486
    x31       c33                           791
    x32       obj1                            1
    x32       c2                            629
    x32       c50                           598
    x32       c53                           374
    x32       c55                           381
    x33       obj1                            1
    x33       c6                            414
    x33       c23                           741
    x33       c27                           250
    x33       c46                           896
    x33       c48                           363
    x33       c51                           239
    x33       c58                           546
    x34       obj1                            1
    x34       c7                            796
    x34       c21                           603
    x34       c28                           814
    x34       c37                           218
    x34       c39                           481
    x34       c45                           512
    x34       c49                           708
    x34       c54                           155
    x34       c58                           987
    x35       obj1                            1
    x35       c7                            643
    x35       c9                            712
    x35       c14                           779
    x35       c31                           719
    x35       c38                           950
    x35       c39                           858
    x35       c41                           170
    x36       obj1                            1
    x36       c32                           655
    x36       c34                           640
    x36       c51                           101
    x37       obj1                            1
    x37       c9                            785
    x37       c10                           103
    x37       c27                           506
    x37       c28                           463
    x37       c32                           611
    x37       c33                           759
    x37       c36                           935
    x37       c38                           131
    x37       c42                           864
    x37       c56                           590
    x38       obj1                            1
    x38       c2                            868
    x38       c18                           612
    x38       c27                           744
    x38       c29                           108
    x38       c35                           494
    x38       c44                           949
    x38       c60                           731
    x39       obj1                            1
    x39       c5                            332
    x39       c22                           897
    x39       c35                           698
    x39       c36                           503
    x39       c47                           181
    x39       c49                           751
    x39       c51                           684
    x40       obj1                            1
    x40       c17                           911
    x40       c18                           360
    x40       c23                           582
    x40       c26                           708
    x40       c49                           439
    x40       c50                           426
    x40       c53                           549
    x41       obj1                            1
    x41       c4                            657
    x41       c22                           756
    x41       c25                           521
    x41       c26                           749
    x41       c27                           528
    x41       c29                           968
    x41       c59                           464
    x41       c60                           268
    x42       obj1                            1
    x42       c2                            115
    x42       c8                            479
    x42       c10                           303
    x42       c15                           201
    x42       c16                           404
    x42       c17                           580
    x42       c34                           414
    x42       c52                           622
    x42       c58                           184
    x42       c60                           238
    x43       obj1                            1
    x43       c12                           338
    x43       c15                           273
    x43       c18                           201
    x43       c22                           520
    x43       c29                           558
    x43       c43                           327
    x43       c57                           896
    x44       obj1                            1
    x44       c1                            718
    x44       c2                            554
    x44       c12                           935
    x44       c24                           839
    x44       c41                           378
    x44       c47                           499
    x44       c59                           252
    x44       c60                           725
    x45       obj1                            1
    x45       c7                            766
    x45       c10                           919
    x45       c14                           492
    x45       c19                           125
    x45       c20                           243
    x45       c21                           538
    x45       c45                           564
    x45       c56                           810
    x46       obj1                            1
    x46       c12                           536
    x46       c20                           727
    x46       c25                           516
    x47       obj1                            1
    x47       c7                            651
    x47       c10                           632
    x47       c16                           964
    x47       c22                           491
    x47       c23                           652
    x47       c28                           974
    x47       c31                           879
    x47       c33                           886
    x47       c36                           437
    x47       c46                           668
    x48       obj1                            1
    x48       c2                            529
    x48       c7                            558
    x48       c8                            235
    x48       c22                           154
    x48       c31                           496
    x48       c39                           515
    x48       c46                           965
    x48       c54                           251
    x49       obj1                            1
    x49       c27                           708
    x49       c31                           165
    x49       c41                           915
    x49       c44                           975
    x49       c46                           553
    x50       obj1                            1
    x50       c5                            142
    x50       c11                           381
    x50       c34                           846
    x50       c43                           201
    x50       c50                           864
    x50       c52                           372
    x51       obj1                            1
    x51       c5                            862
    x51       c15                           751
    x51       c19                           904
    x51       c20                           171
    x52       obj1                            1
    x52       c4                            886
    x52       c15                           873
    x52       c16                           403
    x52       c24                           475
    x52       c42                           575
    x53       obj1                            1
    x53       c15                           287
    x53       c22                           801
    x53       c26                           406
    x53       c31                           798
    x54       obj1                            1
    x54       c3                            814
    x54       c25                           331
    x54       c29                           172
    x54       c38                           834
    x54       c42                           877
    x54       c51                           153
    x55       obj1                            1
    x55       c7                            317
    x55       c14                           420
    x55       c19                           656
    x55       c36                           574
    x55       c38                           269
    x55       c59                           717
    x56       obj1                            1
    x56       c11                           419
    x56       c13                           615
    x56       c55                           788
    x57       obj1                            1
    x57       c25                           758
    x57       c26                           802
    x57       c41                           653
    x57       c48                           822
    x58       obj1                            1
    x58       c16                           377
    x58       c25                           232
    x58       c43                           531
    x58       c45                           589
    x58       c49                           551
    x58       c50                           225
    x59       obj1                            1
    x59       c11                           160
    x59       c26                           235
    x59       c31                           832
    x59       c32                           286
    x59       c34                           326
    x60       obj1                            1
    x60       c4                            475
    x60       c29                           910
    x60       c33                           246
    x60       c38                           678
    x60       c51                           227
    MARK0001  'MARKER'                 'INTEND'
RHS
    rhs       c1                           1077
    rhs       c2                           1962
    rhs       c3                           1093
    rhs       c4                           1572
    rhs       c5                           1090
    rhs       c6                            790
    rhs       c7                           2677
    rhs       c8                           1366
    rhs       c9                           1315
    rhs       c10                          1656
    rhs       c11                          1316
    rhs       c12                          1712
    rhs       c13                          1032
    rhs       c14                          1314
    rhs       c15                          1736
    rhs       c16                          1074
    rhs       c17                          1259
    rhs       c18                          1193
    rhs       c19                          1293
    rhs       c20                          1032
    rhs       c21                          1188
    rhs       c22                          2792
    rhs       c23                          2208
    rhs       c24                           757
    rhs       c25                          2222
    rhs       c26                          1791
    rhs       c27                          2488
    rhs       c28                          2298
    rhs       c29                          1925
    rhs       c30                          1233
    rhs       c31                          2475
    rhs       c32                          1546
    rhs       c33                          1341
    rhs       c34                          2586
    rhs       c35                          1014
    rhs       c36                          2312
    rhs       c37                          1129
    rhs       c38                          1725
    rhs       c39                          1230
    rhs       c40                          2387
    rhs       c41                          2177
    rhs       c42                          1479
    rhs       c43                          1930
    rhs       c44                          1299
    rhs       c45                          1591
    rhs       c46                          2080
    rhs       c47                          1174
    rhs       c48                          1051
    rhs       c49                          2227
    rhs       c50                          2025
    rhs       c51                          1031
    rhs       c52                           601
    rhs       c53                          1519
    rhs       c54                          1950
    rhs       c55                          1060
    rhs       c56                          1199
    rhs       c57                          1137
    rhs       c58                          1103
    rhs       c59                          2295
    rhs       c60                          1958
BOUNDS
 LI bnd       x1        0
 LI bnd       x2        0
 LI bnd       x3        0
 LI bnd       x4        0
 LI bnd       x5        0
 LI bnd       x6        0
 LI bnd       x7        0
 LI bnd       x8        0
 LI bnd       x9        0
 LI bnd       x10       0
 LI bnd       x11       0
 LI bnd       x12       0
 LI bnd       x13       0
 LI bnd       x14       0
 LI bnd       x15       0
 LI bnd       x16       0
 LI bnd       x17       0
 LI bnd       x18       0
 LI bnd       x19       0
 LI bnd       x20       0
 LI bnd       x21       0
 LI bnd       x22       0
 LI bnd       x23       0
 LI bnd       x24       0
 LI bnd       x25       0
 LI bnd       x26       0
 LI bnd       x27       0
 LI bnd       x28       0
 LI bnd       x29       0
 LI bnd       x30       0
 LI bnd       x31       0
 LI bnd       x32       0
 LI bnd       x33       0
 LI bnd       x34       0
 LI bnd       x35       0
 LI bnd       x36       0
 LI bnd       x37       0
 LI bnd       x38       0
 LI bnd       x39       0
 LI bnd       x40       0
 LI bnd       x41       0
 LI bnd       x42       0
 LI bnd       x43       0
 LI bnd       x44       0
 LI bnd       x45       0
 LI bnd       x46       0
 LI bnd       x47       0
 LI bnd       x48       0
 LI bnd       x49       0
 LI bnd       x50       0
 LI bnd       x51       0
 LI bnd       x52       0
 LI bnd       x53       0
 LI bnd       x54       0
 LI bnd       x55       0
 LI bnd       x56       0
 LI bnd       x57       0
 LI bnd       x58       0
 LI bnd       x59       0
 LI bnd       x60       0
ENDATA
